Route #1: 1 25 36 3 38 10 22 19 4 1
Route #2: 1 26 40 39 28 20 27 1
Route #3: 1 5 14 9 37 33 13 1
Route #4: 1 7 34 12 35 29 18 15 2 1
Route #5: 1 11 24 21 17 41 31 1
Route #6: 1 6 16 32 23 8 30 1
cost 878
